
Gurobi 8.1.1 (mac64, Python) logging started Tue Apr  9 04:40:08 2019

Academic license - for non-commercial use only
Parameter OutputFlag unchanged
   Value: 1  Min: 0  Max: 1  Default: 1

Gurobi 8.1.1 (mac64, Python) logging started Tue Apr  9 04:44:13 2019

Academic license - for non-commercial use only
Parameter OutputFlag unchanged
   Value: 1  Min: 0  Max: 1  Default: 1

Gurobi 8.1.1 (mac64, Python) logging started Tue Apr  9 12:35:12 2019

Academic license - for non-commercial use only
Parameter OutputFlag unchanged
   Value: 1  Min: 0  Max: 1  Default: 1
Parameter OutputFlag unchanged
   Value: 1  Min: 0  Max: 1  Default: 1
Parameter OutputFlag unchanged
   Value: 1  Min: 0  Max: 1  Default: 1

Gurobi 8.1.1 (mac64, Python) logging started Tue Apr  9 12:40:22 2019

Academic license - for non-commercial use only
Parameter OutputFlag unchanged
   Value: 1  Min: 0  Max: 1  Default: 1
Parameter OutputFlag unchanged
   Value: 1  Min: 0  Max: 1  Default: 1

Gurobi 8.1.1 (mac64, Python) logging started Tue Apr  9 12:44:03 2019

Academic license - for non-commercial use only
Parameter OutputFlag unchanged
   Value: 1  Min: 0  Max: 1  Default: 1

Gurobi 8.1.1 (mac64, Python) logging started Tue Apr  9 13:36:18 2019

Academic license - for non-commercial use only
Parameter OutputFlag unchanged
   Value: 1  Min: 0  Max: 1  Default: 1

Gurobi 8.1.1 (mac64, Python) logging started Tue Apr  9 13:39:17 2019

Academic license - for non-commercial use only
Parameter OutputFlag unchanged
   Value: 1  Min: 0  Max: 1  Default: 1

Gurobi 8.1.1 (mac64, Python) logging started Tue Apr  9 13:56:43 2019

Academic license - for non-commercial use only
Parameter OutputFlag unchanged
   Value: 1  Min: 0  Max: 1  Default: 1

Gurobi 8.1.1 (mac64, Python) logging started Mon Apr 15 14:08:27 2019

Academic license - for non-commercial use only
Parameter OutputFlag unchanged
   Value: 1  Min: 0  Max: 1  Default: 1
Parameter OutputFlag unchanged
   Value: 1  Min: 0  Max: 1  Default: 1
